lattice_vector    2.464168790    0.000000000    0.000000000
lattice_vector   -1.232084680    2.134032600    0.000000000
lattice_vector    0.000000000    0.000000000   20.000000000

atom   0.145608190000   1.548786040000  10.000000000000 C
atom   0.145603510000   0.126100540000  10.000000000000 C
