lattice_vector    3.166341440    0.000000000    0.000000000
lattice_vector   -1.583170720    2.742132130    0.000000000
lattice_vector    0.000000000    0.000000000   30.000000000

atom_frac   0.333333330000   0.666666670000   0.052152620000 Mo
atom_frac   0.666666670000   0.333333330000   0.001000000000 S
atom_frac   0.666666670000   0.333333330000   0.104354001487 S
